&GLOBAL
  PROJECT "unterminated
  RUN_TYPE ENERGY
&END GLOBAL
