&GLOBAL
  PROJECT test
  &DFT
    RUN_TYPE ENERGY
  &END DFT
&END GLOBAL
&FORCE_EVAL
  METHOD QS
  &SUBSYS
    &CELL
      A 10.0 0.0 0.0
    &END CELL
    &COORD
      O 0.0 0.0 0.0
    &END COORD
  &END SUBSYS
&END FORCE_EVAL
