&GLOBAL
  PROJECT_NAME H2O_sp
  RUN_TYPE ENERGY
  PRINT_LEVEL MEDIUM
&END GLOBAL

&FORCE_EVAL
  METHOD QS
  &DFT
    BASIS_SET_FILE_NAME BASIS_MOLOPT
    POTENTIAL_FILE_NAME GTH_POTENTIALS
    CHARGE 0
    MULTIPLICITY 1
    &MGRID
      CUTOFF 400
      REL_CUTOFF 50
    &END MGRID
    &QS
      METHOD GAPW
      EPS_DEFAULT 1.0E-10
    &END QS
    &SCF
      EPS_SCF 1.0E-6
      MAX_SCF 50
      SCF_GUESS ATOMIC
      &OT
        MINIMIZER DIIS
        PRECONDITIONER FULL_SINGLE_INVERSE
      &END OT
    &END SCF
    &XC
      &XC_FUNCTIONAL PBE
      &END XC_FUNCTIONAL
    &END XC
  &END DFT
  &SUBSYS
    &CELL
      ABC 10.0 10.0 10.0
      PERIODIC XYZ
    &END CELL
    &KIND H
      BASIS_SET DZVP
      POTENTIAL GTH-PBE
    &END KIND
    &KIND O
      BASIS_SET TZVP
      POTENTIAL GTH-PBE
    &END KIND
    &COORD
      O   0.000000   0.000000   0.117489
      H   0.000000   0.757210  -0.469957
      H   0.000000  -0.757210  -0.469957
    &END COORD
  &END SUBSYS
&END FORCE_EVAL
