&GLOBAL
  PROJECT test # Another comment with "double quotes" and 'single quotes'
&END GLOBAL
