&GLOBAL
  PROJECT test ! This is a comment with "quotes" inside
&END GLOBAL
