&GLOBAL
  RUN_TYPE ENERGY
&END GLOBAL

&FORCE_EVAL
  METHOD QS
  METHOD FIST
  &SUBSYS
    &COORD
      O  0.0  0.0  0.0
    &END COORD
  &END SUBSYS
  &DFT
    &XC
      &XC_FUNCTIONAL PBE
      &END XC_FUNCTIONAL
    &END XC
  &END DFT
  &FIST
    &NONBONDED
    &END NONBONDED
  &END FIST
&END FORCE_EVAL
