&FORCE_EVAL
  METHOD QS
  &GLOBAL
    PROJECT test
  &END GLOBAL
&END FORCE_EVAL
