&GLOBAL
  PROJECT test
&END GLOBAL
&MGRID
  CUTOFF 400
&END MGRID
