&FORCE_EVAL
  METHOOD QS
  &SUBSYS
    &COORD
      O 0.0 0.0 0.0
    &END COORD
  &END SUBSYS
&END FORCE_EVAL
