&FORCE_EVAL
  METHOD INVALID_METHOD_XYZ
  &SUBSYS
    &COORD
      O 0.0 0.0 0.0
    &END COORD
  &END SUBSYS
&END FORCE_EVAL
