&GLOBAL
  PROJECT_NAME test
&END GLOBAL

&FORCE_EVAL
  METHOD QS
  METHOD FIST
&END FORCE_EVAL
