&GLOBAL
  PROJECT_NAME test
  RUN_TYPE NOT_A_REAL_RUN_TYPE
&END GLOBAL
