&GLOBAL
  PROJECT_NAME test
&END GLOBAL

&FORCE_EVAL
  METHOD QS
  &GLOBAL
  &END GLOBAL
&END FORCE_EVAL
