&GLOBAL
  PROJECT_NAME test
&END GLOBAL

&FORCE_EVAL
  METHOD QS
  &SUBSYS
    &KIND O
      BASIS_SET DZVP
    &END KIND
  &END SUBSYS
&END FORCE_EVAL
