&GLOBAL
  PROJECT_NAME test
&END GLOBAL

&FORCE_EVAL
  METHOD QS
  &DFT
    &SCF
      EPS_SCF not_a_real
    &END SCF
    &XC
      &XC_FUNCTIONAL PBE
      &END XC_FUNCTIONAL
    &END XC
  &END DFT
&END FORCE_EVAL
