&GLOBAL
  PROJECT_NAME test
&END GLOBAL

&FORCE_EVAL
  METHOD QS
  &DFT
    &FAKE_DFT_SUBSECTION
    &END FAKE_DFT_SUBSECTION
  &END DFT
&END FORCE_EVAL
