&GLOBAL
  PROJECT_NAME test
&END GLOBAL

&FAKE_ROOT_SECTION
  SOME_KEYWORD value
&END FAKE_ROOT_SECTION
