&GLOBAL
  PROJECT_NAME test
  FAKE_GLOBAL_KEYWORD some-value
&END GLOBAL
