&GLOBAL
  PROJECT_NAME minimal
  RUN_TYPE ENERGY
&END GLOBAL

&FORCE_EVAL
  METHOD QS
  &DFT
    CHARGE 0
    &SCF
      MAX_SCF 50
      EPS_SCF 1.0E-7
    &END SCF
    &XC
      &XC_FUNCTIONAL PBE
      &END XC_FUNCTIONAL
    &END XC
  &END DFT
&END FORCE_EVAL
