&GLOBAL
  PROJECT eps_scf_loose_test
  RUN_TYPE ENERGY
&END GLOBAL
&FORCE_EVAL
  METHOD QS
  &DFT
    &SCF
      EPS_SCF 1.0E-3
    &END SCF
  &END DFT
  &SUBSYS
    &CELL
      A 10.0 0.0 0.0
      B 0.0 10.0 0.0
      C 0.0 0.0 10.0
    &END CELL
    &COORD
      O 0.0 0.0 0.0
      H 0.9 0.0 0.0
      H -0.9 0.0 0.0
    &END COORD
  &END SUBSYS
&END FORCE_EVAL
