# Dual XC functional conflict
&FORCE_EVAL
  METHOD QS
  &DFT
    &MGRID
      CUTOFF 400
    &END MGRID
    &XC
      &XC_FUNCTIONAL
        &PBE
        &END PBE
      &END XC_FUNCTIONAL
      &XC_FUNCTIONAL
        &B3LYP
        &END B3LYP
      &END XC_FUNCTIONAL
    &END XC
  &END DFT
&END FORCE_EVAL
